c A SAT instance generated from a 3-CNF formula that had 26 clauses and 13 variables
p cnf 13 26
1 4 -9 0
3 11 1 0
11 -10 3 0
6 5 3 0
1 6 -3 0
10 1 7 0
1 12 -8 0
4 -11 -3 0
4 2 -1 0
-9 -6 -3 0
5 9 12 0
13 -10 6 0
3 11 -12 0
5 -12 7 0
3 -12 5 0
-11 -4 12 0
-3 -6 5 0
-10 -7 -12 0
9 -3 -6 0
-1 -13 -10 0
-11 -10 -7 0
-4 -9 -7 0
8 5 -11 0
-4 2 13 0
6 3 -10 0
6 -7 10 0
